n = 100;
C = 450;
w = [576,647,455,560,802,966,519,353,777,971,331,246,324,451,322,683,552,500,547,298,121,536,145,517,214,953,389,990,176,189,811,362,700,524,895,27,34,240,802,462,76,187,327,325,18,280,419,149,301,867,413,338,932,186,354,769,628,712,75,950,530,520,267,696,14,463,876,618,112,397,90,211,22,829,626,912,418,82,27,552,429,364,94,465,176,52,51,537,701,885,205,400,201,852,94,948,405,529,469,700];
p = [576,647,455,560,802,966,519,353,777,971,331,246,324,451,322,683,552,500,547,298,121,536,145,517,214,953,389,990,176,189,811,362,700,524,895,27,34,240,802,462,76,187,327,325,18,280,419,149,301,867,413,338,932,186,354,769,628,712,75,950,530,520,267,696,14,463,876,618,112,397,90,211,22,829,626,912,418,82,27,552,429,364,94,465,176,52,51,537,701,885,205,400,201,852,94,948,405,529,469,700];
